FILENAME:   /home/mcs001/s132664/testsets/IP/miplib2017/qiu.mps.gz
SETTINGS:   settings_isopr_minimalindexbranching_avoidsubtreenodes
TIMELIMIT:  7200
OUTPUTNAME: final_miplib_symretope_if_extended_generating_set_cpx_v802__settings_isopr_minimalindexbranching_avoidsubtreenodes__2__
BINNAME:    bin/symmetries.linux.x86_64.gnu.opt.cpx
BASENAME:   qiu.mps.gz
SEED:       2
@01 /home/mcs001/s132664/testsets/IP/miplib2017/qiu.mps.gz ===========
@02 qiu.mps.gz
@03 1686566808
SCIP version 8.0.2 [precision: 8 byte] [memory: block] [mode: optimized] [LP solver: CPLEX 20.1.0.0] [GitHash: 5f0473c]
Copyright (C) 2002-2022 Konrad-Zuse-Zentrum fuer Informationstechnik Berlin (ZIB)

Symmetry handling routines - (c) Marc Pfetsch, Thomas Rehn, Christopher Hojny.
[GitHash: a1587cb]


Turned off presolver <gateextraction>.
reading parameter file <../settings/settings_isopr_minimalindexbranching_avoidsubtreenodes.set> ...

Changed settings:
limits/time = 7200
limits/restarts = 0
randomization/randomseedshift = 2
constraints/orbitope/sepafreq = -1
constraints/orbitope/propfreq = 1
presolving/gateextraction/maxrounds = 0
propagating/isoprune/avoidsubtreenodes = TRUE
useisoprune = TRUE
usebranchfirst = TRUE


solving problem ...

original problem has 840 variables (48 bin, 0 int, 0 impl, 792 cont) and 1192 constraints
presolving:
(round 1, fast)       0 del vars, 0 del conss, 0 add conss, 792 chg bounds, 0 chg sides, 0 chg coeffs, 0 upgd conss, 0 impls, 0 clqs
(round 2, exhaustive) 0 del vars, 0 del conss, 0 add conss, 792 chg bounds, 0 chg sides, 0 chg coeffs, 528 upgd conss, 0 impls, 0 clqs
   (0.0s) probing cycle finished: starting next cycle
Required symmetry:			(1 bin, 0 int, 0 cont); (fixed: 0 bin, 1 int, 0 cont)
Time for symmetry detection:		0.01 	(matrix graph, 3872 nodes, 6864 edges)
Number of generators:			4 	(max: 1500)
Order of symmetry group:		48
Log10 of symmetry group order:		1.7
Number of vars moved by some symmetry:	840
Total time for symmetry detection:	0.01

Turned off presolver <domcol>.
Turned off presolver <components>.

presolving (3 rounds: 3 fast, 2 medium, 2 exhaustive):
 0 deleted vars, 0 deleted constraints, 0 added constraints, 792 tightened bounds, 0 added holes, 0 changed sides, 0 changed coefficients
 528 implications, 0 cliques
presolved problem has 840 variables (48 bin, 0 int, 0 impl, 792 cont) and 1193 constraints
    528 constraints of type <varbound>
    664 constraints of type <linear>
      1 constraints of type <symmetries>
Presolving Time: 0.02

 time | node  | left  |LP iter|LP it/n|mem/heur|mdpt |frac |vars |cons |cols |rows |cuts |confs|strbr|  dualbound   | primalbound  |  gap   
p 0.0s|     1 |     0 |    59 |     - |shiftand|   0 |   - | 840 |1193 | 840 |1192 |   0 |   0 |   0 |-9.200187e+03 | 3.173585e+03 |    Inf 
i 0.0s|     1 |     0 |    59 |     - |  oneopt|   0 |   - | 840 |1193 | 840 |1192 |   0 |   0 |   0 |-9.200187e+03 | 1.463075e+03 |    Inf 
  0.0s|     1 |     0 |   127 |     - |    10M |   0 |  36 | 840 |1193 | 840 |1192 |   0 |   0 |   0 |-9.316389e+02 | 1.463075e+03 |    Inf 
o 0.1s|     1 |     0 |  1022 |     - |feaspump|   0 |   0 | 840 |1193 | 840 |1192 |   0 |   0 |   0 |-9.316389e+02 | 5.865806e+02 |    Inf 
  0.1s|     1 |     0 |  1022 |     - |    11M |   0 |  36 | 840 |1193 | 840 |1192 |   0 |   0 |   0 |-9.316389e+02 | 5.865806e+02 |    Inf 
  0.1s|     1 |     2 |  1022 |     - |    11M |   0 |  36 | 840 |1193 | 840 |1192 |   0 |   0 |   0 |-9.316389e+02 | 5.865806e+02 |    Inf 
o 0.7s|    24 |    21 |  5674 | 243.7 |objpscos|  12 |   3 | 840 |1186 | 840 |1192 |   0 |   5 |   0 |-7.842315e+02 | 4.912898e+02 |    Inf 
o 0.7s|    24 |    21 |  5836 | 250.8 |objpscos|  12 |   0 | 840 |1186 | 840 |1192 |   0 |   5 |   0 |-7.842315e+02 | 4.030103e+02 |    Inf 
d 1.0s|    35 |    32 |  8514 | 248.4 |pscostdi|  13 |   2 | 840 |1188 | 840 |1192 |   0 |   7 |   0 |-7.842315e+02 | 3.247697e+02 |    Inf 
d 1.3s|    57 |    52 | 11568 | 205.4 |pscostdi|  14 |   - | 840 |1195 | 840 |1192 |   0 |  14 |   0 |-7.842315e+02 | 2.384356e+02 |    Inf 
o 1.5s|    76 |    71 | 12882 | 170.9 |objpscos|  19 |   3 | 840 |1197 | 840 |1192 |   0 |  16 |   0 |-7.738580e+02 | 1.413957e+02 |    Inf 
o 1.5s|    76 |    71 | 12911 | 171.2 |objpscos|  19 |   0 | 840 |1197 | 840 |1192 |   0 |  16 |   0 |-7.738580e+02 | 7.598183e+00 |    Inf 
  1.5s|   100 |    85 | 13408 | 134.7 |    14M |  30 |   - | 840 |1196 | 840 |1192 |   0 |  16 |   0 |-7.738580e+02 | 7.598183e+00 |    Inf 
* 1.6s|   120 |    91 | 13833 | 115.7 |    LP  |  30 |   - | 840 |1196 | 840 |1192 |   0 |  16 |   0 |-7.738580e+02 | 3.191963e+00 |    Inf 
  2.0s|   200 |   111 | 17038 |  85.3 |    15M |  38 |   - | 840 |1193 | 840 |1192 |   0 |  16 |   0 |-7.213424e+02 | 3.191963e+00 |    Inf 
 time | node  | left  |LP iter|LP it/n|mem/heur|mdpt |frac |vars |cons |cols |rows |cuts |confs|strbr|  dualbound   | primalbound  |  gap   
  2.6s|   300 |   145 | 21902 |  73.0 |    16M |  38 |  21 | 840 |1194 | 840 |1192 |   0 |  17 |   0 |-6.581595e+02 | 3.191963e+00 |    Inf 
L 3.1s|   320 |   114 | 24658 |  77.1 |    rins|  38 |   - | 840 |1196 | 840 |1192 |   0 |  19 |   0 |-6.481275e+02 |-1.284669e+02 | 404.51%
  3.6s|   400 |   128 | 26893 |  67.2 |    18M |  38 |   - | 840 |1199 | 840 |1192 |   0 |  22 |   0 |-6.283330e+02 |-1.284669e+02 | 389.10%
* 3.8s|   430 |   139 | 28222 |  65.6 |    LP  |  38 |   - | 840 |1198 | 840 |1192 |   0 |  23 |   0 |-6.283330e+02 |-1.328731e+02 | 372.88%
  4.2s|   500 |   151 | 30267 |  60.5 |    18M |  38 |  13 | 840 |1197 | 840 |1192 |   0 |  24 |   0 |-6.231400e+02 |-1.328731e+02 | 368.97%
  4.9s|   600 |   145 | 33054 |  55.1 |    19M |  38 |  16 | 840 |1198 | 840 |1192 |   0 |  26 |   0 |-6.047160e+02 |-1.328731e+02 | 355.11%
  5.6s|   700 |   157 | 36003 |  51.4 |    21M |  38 |  22 | 840 |1197 | 840 |1192 |   0 |  26 |   0 |-6.032190e+02 |-1.328731e+02 | 353.98%
  6.3s|   800 |   187 | 40474 |  50.6 |    22M |  38 |  13 | 840 |1197 | 840 |1192 |   0 |  26 |   0 |-5.934692e+02 |-1.328731e+02 | 346.64%
  6.6s|   900 |   203 | 42878 |  47.6 |    22M |  38 |  11 | 840 |1199 | 840 |1192 |   0 |  29 |   0 |-5.896761e+02 |-1.328731e+02 | 343.79%
  7.2s|  1000 |   225 | 46110 |  46.1 |    25M |  38 |  18 | 840 |1202 | 840 |1192 |   0 |  32 |   0 |-5.849853e+02 |-1.328731e+02 | 340.26%
  7.9s|  1100 |   211 | 48239 |  43.8 |    25M |  38 |   - | 840 |1202 | 840 |1192 |   0 |  32 |   0 |-5.846343e+02 |-1.328731e+02 | 339.99%
  8.5s|  1200 |   227 | 51703 |  43.1 |    27M |  38 |  26 | 840 |1201 | 840 |1192 |   0 |  33 |   0 |-5.777660e+02 |-1.328731e+02 | 334.83%
  9.4s|  1300 |   265 | 58332 |  44.9 |    30M |  38 |   - | 840 |1204 | 840 |1192 |   0 |  38 |   0 |-5.766290e+02 |-1.328731e+02 | 333.97%
  9.9s|  1400 |   301 | 62033 |  44.3 |    30M |  38 |  17 | 840 |1209 | 840 |1192 |   0 |  43 |   0 |-5.579651e+02 |-1.328731e+02 | 319.92%
 10.3s|  1500 |   307 | 64582 |  43.0 |    30M |  38 |  22 | 840 |1209 | 840 |1192 |   0 |  43 |   0 |-5.526805e+02 |-1.328731e+02 | 315.95%
 time | node  | left  |LP iter|LP it/n|mem/heur|mdpt |frac |vars |cons |cols |rows |cuts |confs|strbr|  dualbound   | primalbound  |  gap   
 10.6s|  1600 |   315 | 66771 |  41.7 |    30M |  38 |  10 | 840 |1208 | 840 |1192 |   0 |  43 |   0 |-5.501062e+02 |-1.328731e+02 | 314.01%
 11.1s|  1700 |   341 | 71435 |  42.0 |    30M |  38 |  15 | 840 |1210 | 840 |1192 |   0 |  45 |   0 |-5.497794e+02 |-1.328731e+02 | 313.76%
 11.4s|  1800 |   365 | 73322 |  40.7 |    30M |  38 |  13 | 840 |1210 | 840 |1192 |   0 |  46 |   0 |-5.497435e+02 |-1.328731e+02 | 313.74%
 11.9s|  1900 |   359 | 76550 |  40.3 |    30M |  38 |  24 | 840 |1212 | 840 |1192 |   0 |  50 |   0 |-5.319658e+02 |-1.328731e+02 | 300.36%
 12.5s|  2000 |   377 | 80480 |  40.2 |    30M |  38 |   - | 840 |1212 | 840 |1192 |   0 |  50 |   0 |-5.296749e+02 |-1.328731e+02 | 298.63%
 12.8s|  2100 |   389 | 82665 |  39.4 |    30M |  38 |   - | 840 |1213 | 840 |1192 |   0 |  52 |   0 |-5.245123e+02 |-1.328731e+02 | 294.75%
 13.3s|  2200 |   387 | 85351 |  38.8 |    30M |  38 |  34 | 840 |1218 | 840 |1192 |   0 |  57 |   0 |-5.165942e+02 |-1.328731e+02 | 288.79%
 13.7s|  2300 |   405 | 89137 |  38.7 |    30M |  38 |  12 | 840 |1220 | 840 |1192 |   0 |  61 |   0 |-5.152110e+02 |-1.328731e+02 | 287.75%
 14.1s|  2400 |   403 | 91193 |  38.0 |    30M |  38 |  34 | 840 |1219 | 840 |1192 |   0 |  61 |   0 |-5.120810e+02 |-1.328731e+02 | 285.39%
 14.5s|  2500 |   441 | 96060 |  38.4 |    30M |  38 |   - | 840 |1223 | 840 |1192 |   0 |  65 |   0 |-5.120810e+02 |-1.328731e+02 | 285.39%
 15.2s|  2600 |   465 |101481 |  39.0 |    31M |  38 |  20 | 840 |1224 | 840 |1192 |   0 |  66 |   0 |-4.987065e+02 |-1.328731e+02 | 275.33%
 15.7s|  2700 |   481 |105273 |  39.0 |    31M |  38 |   - | 840 |1227 | 840 |1192 |   0 |  70 |   0 |-4.983770e+02 |-1.328731e+02 | 275.08%
 16.1s|  2800 |   489 |108180 |  38.6 |    31M |  38 |   - | 840 |1225 | 840 |1192 |   0 |  70 |   0 |-4.983770e+02 |-1.328731e+02 | 275.08%
 16.5s|  2900 |   497 |110617 |  38.1 |    31M |  38 |  24 | 840 |1227 | 840 |1192 |   0 |  74 |   0 |-4.933518e+02 |-1.328731e+02 | 271.30%
 16.9s|  3000 |   513 |114285 |  38.1 |    31M |  38 |  24 | 840 |1228 | 840 |1192 |   0 |  75 |   0 |-4.925382e+02 |-1.328731e+02 | 270.68%
 time | node  | left  |LP iter|LP it/n|mem/heur|mdpt |frac |vars |cons |cols |rows |cuts |confs|strbr|  dualbound   | primalbound  |  gap   
 17.4s|  3100 |   531 |117924 |  38.0 |    33M |  38 |  24 | 840 |1229 | 840 |1192 |   0 |  78 |   0 |-4.902540e+02 |-1.328731e+02 | 268.96%
 18.1s|  3200 |   549 |123407 |  38.6 |    33M |  38 |   - | 840 |1231 | 840 |1192 |   0 |  80 |   0 |-4.844829e+02 |-1.328731e+02 | 264.62%
 18.6s|  3300 |   579 |127499 |  38.6 |    34M |  38 |  20 | 840 |1232 | 840 |1192 |   0 |  83 |   0 |-4.817145e+02 |-1.328731e+02 | 262.54%
 19.1s|  3400 |   599 |131059 |  38.5 |    34M |  38 |  16 | 840 |1232 | 840 |1192 |   0 |  84 |   0 |-4.813111e+02 |-1.328731e+02 | 262.23%
 19.6s|  3500 |   615 |134579 |  38.4 |    34M |  38 |   - | 840 |1235 | 840 |1192 |   0 |  88 |   0 |-4.799271e+02 |-1.328731e+02 | 261.19%
 20.1s|  3600 |   641 |139383 |  38.7 |    34M |  38 |   - | 840 |1233 | 840 |1192 |   0 |  92 |   0 |-4.720245e+02 |-1.328731e+02 | 255.24%
 20.5s|  3700 |   655 |141998 |  38.4 |    34M |  38 |  15 | 840 |1231 | 840 |1192 |   0 |  94 |   0 |-4.652973e+02 |-1.328731e+02 | 250.18%
 20.9s|  3800 |   673 |145430 |  38.3 |    34M |  38 |  19 | 840 |1230 | 840 |1192 |   0 |  95 |   0 |-4.626349e+02 |-1.328731e+02 | 248.18%
 21.2s|  3900 |   699 |147999 |  37.9 |    34M |  38 |   7 | 840 |1228 | 840 |1192 |   0 |  95 |   0 |-4.563211e+02 |-1.328731e+02 | 243.43%
 21.8s|  4000 |   717 |151899 |  38.0 |    35M |  38 |   - | 840 |1227 | 840 |1192 |   0 |  96 |   0 |-4.523104e+02 |-1.328731e+02 | 240.41%
 22.2s|  4100 |   703 |154505 |  37.7 |    35M |  38 |  17 | 840 |1227 | 840 |1192 |   0 |  98 |   0 |-4.493683e+02 |-1.328731e+02 | 238.19%
 22.8s|  4200 |   721 |158140 |  37.6 |    35M |  38 |   - | 840 |1230 | 840 |1192 |   0 | 102 |   0 |-4.462846e+02 |-1.328731e+02 | 235.87%
 23.4s|  4300 |   733 |159950 |  37.2 |    35M |  38 |  13 | 840 |1228 | 840 |1192 |   0 | 102 |   0 |-4.455679e+02 |-1.328731e+02 | 235.33%
 23.9s|  4400 |   709 |162235 |  36.9 |    35M |  38 |   - | 840 |1227 | 840 |1192 |   0 | 102 |   0 |-4.445359e+02 |-1.328731e+02 | 234.56%
 24.4s|  4500 |   721 |166186 |  36.9 |    35M |  38 |   - | 840 |1222 | 840 |1192 |   0 | 102 |   0 |-4.409967e+02 |-1.328731e+02 | 231.89%
 time | node  | left  |LP iter|LP it/n|mem/heur|mdpt |frac |vars |cons |cols |rows |cuts |confs|strbr|  dualbound   | primalbound  |  gap   
 24.9s|  4600 |   733 |169906 |  36.9 |    35M |  38 |  20 | 840 |1215 | 840 |1192 |   0 | 102 |   0 |-4.395581e+02 |-1.328731e+02 | 230.81%
 25.3s|  4700 |   731 |173186 |  36.8 |    35M |  38 |  19 | 840 |1214 | 840 |1192 |   0 | 102 |   0 |-4.395581e+02 |-1.328731e+02 | 230.81%
 25.8s|  4800 |   731 |176886 |  36.8 |    35M |  38 |  22 | 840 |1212 | 840 |1192 |   0 | 102 |   0 |-4.368863e+02 |-1.328731e+02 | 228.80%
 26.2s|  4900 |   747 |179742 |  36.7 |    35M |  38 |  15 | 840 |1212 | 840 |1192 |   0 | 102 |   0 |-4.368863e+02 |-1.328731e+02 | 228.80%
 26.7s|  5000 |   769 |183597 |  36.7 |    35M |  38 |  23 | 840 |1208 | 840 |1192 |   0 | 103 |   0 |-4.276938e+02 |-1.328731e+02 | 221.88%
 27.2s|  5100 |   775 |186913 |  36.6 |    35M |  38 |   - | 840 |1209 | 840 |1192 |   0 | 104 |   0 |-4.269104e+02 |-1.328731e+02 | 221.29%
 27.9s|  5200 |   787 |191744 |  36.9 |    35M |  38 |   - | 840 |1209 | 840 |1192 |   0 | 104 |   0 |-4.197255e+02 |-1.328731e+02 | 215.88%
 28.4s|  5300 |   811 |195666 |  36.9 |    35M |  38 |   - | 840 |1218 | 840 |1192 |   0 | 113 |   0 |-4.182127e+02 |-1.328731e+02 | 214.75%
 28.9s|  5400 |   827 |199889 |  37.0 |    35M |  38 |  30 | 840 |1218 | 840 |1192 |   0 | 114 |   0 |-4.171720e+02 |-1.328731e+02 | 213.96%
 29.4s|  5500 |   825 |203272 |  37.0 |    35M |  38 |  21 | 840 |1218 | 840 |1192 |   0 | 114 |   0 |-4.148783e+02 |-1.328731e+02 | 212.24%
 29.8s|  5600 |   849 |206844 |  36.9 |    35M |  38 |  11 | 840 |1221 | 840 |1192 |   0 | 119 |   0 |-4.116587e+02 |-1.328731e+02 | 209.81%
 30.3s|  5700 |   861 |210797 |  37.0 |    36M |  38 |  26 | 840 |1219 | 840 |1192 |   0 | 121 |   0 |-4.072160e+02 |-1.328731e+02 | 206.47%
 30.9s|  5800 |   869 |213656 |  36.8 |    36M |  38 |   - | 840 |1216 | 840 |1192 |   0 | 122 |   0 |-4.058777e+02 |-1.328731e+02 | 205.46%
 31.5s|  5900 |   863 |216824 |  36.7 |    36M |  38 |  21 | 840 |1213 | 840 |1192 |   0 | 122 |   0 |-4.026458e+02 |-1.328731e+02 | 203.03%
 31.9s|  6000 |   857 |219744 |  36.6 |    36M |  38 |   - | 840 |1207 | 840 |1192 |   0 | 122 |   0 |-4.012362e+02 |-1.328731e+02 | 201.97%
 time | node  | left  |LP iter|LP it/n|mem/heur|mdpt |frac |vars |cons |cols |rows |cuts |confs|strbr|  dualbound   | primalbound  |  gap   
 32.4s|  6100 |   865 |223394 |  36.6 |    36M |  38 |   - | 840 |1208 | 840 |1192 |   0 | 124 |   0 |-3.956263e+02 |-1.328731e+02 | 197.75%
 32.9s|  6200 |   869 |226080 |  36.5 |    36M |  38 |  20 | 840 |1208 | 840 |1192 |   0 | 125 |   0 |-3.947753e+02 |-1.328731e+02 | 197.11%
 33.4s|  6300 |   889 |229825 |  36.5 |    36M |  38 |  20 | 840 |1210 | 840 |1192 |   0 | 130 |   0 |-3.909120e+02 |-1.328731e+02 | 194.20%
 33.9s|  6400 |   885 |232509 |  36.3 |    36M |  38 |  23 | 840 |1205 | 840 |1192 |   0 | 131 |   0 |-3.870377e+02 |-1.328731e+02 | 191.28%
 34.3s|  6500 |   897 |236125 |  36.3 |    36M |  38 |   - | 840 |1206 | 840 |1192 |   0 | 132 |   0 |-3.844549e+02 |-1.328731e+02 | 189.34%
 34.8s|  6600 |   901 |239689 |  36.3 |    36M |  38 |   - | 840 |1210 | 840 |1192 |   0 | 136 |   0 |-3.827645e+02 |-1.328731e+02 | 188.07%
 35.3s|  6700 |   907 |243227 |  36.3 |    36M |  38 |  24 | 840 |1206 | 840 |1192 |   0 | 137 |   0 |-3.802833e+02 |-1.328731e+02 | 186.20%
 35.8s|  6800 |   907 |246367 |  36.2 |    37M |  38 |  25 | 840 |1207 | 840 |1192 |   0 | 139 |   0 |-3.791795e+02 |-1.328731e+02 | 185.37%
 36.2s|  6900 |   909 |249509 |  36.2 |    38M |  38 |  22 | 840 |1204 | 840 |1192 |   0 | 139 |   0 |-3.778737e+02 |-1.328731e+02 | 184.39%
 36.7s|  7000 |   907 |252431 |  36.1 |    38M |  38 |   - | 840 |1204 | 840 |1192 |   0 | 141 |   0 |-3.763140e+02 |-1.328731e+02 | 183.21%
 37.2s|  7100 |   903 |255782 |  36.0 |    38M |  38 |  23 | 840 |1201 | 840 |1192 |   0 | 141 |   0 |-3.736223e+02 |-1.328731e+02 | 181.19%
 37.7s|  7200 |   905 |259522 |  36.0 |    38M |  38 |  23 | 840 |1200 | 840 |1192 |   0 | 143 |   0 |-3.720063e+02 |-1.328731e+02 | 179.97%
 38.2s|  7300 |   913 |262904 |  36.0 |    38M |  38 |   - | 840 |1197 | 840 |1192 |   0 | 143 |   0 |-3.694997e+02 |-1.328731e+02 | 178.08%
 38.6s|  7400 |   913 |266180 |  36.0 |    38M |  38 |   - | 840 |1195 | 840 |1192 |   0 | 143 |   0 |-3.664536e+02 |-1.328731e+02 | 175.79%
 39.1s|  7500 |   891 |268791 |  35.8 |    38M |  38 |   - | 840 |1191 | 840 |1192 |   0 | 143 |   0 |-3.643921e+02 |-1.328731e+02 | 174.24%
 time | node  | left  |LP iter|LP it/n|mem/heur|mdpt |frac |vars |cons |cols |rows |cuts |confs|strbr|  dualbound   | primalbound  |  gap   
 39.6s|  7600 |   899 |272361 |  35.8 |    38M |  38 |   - | 840 |1198 | 840 |1192 |   0 | 150 |   0 |-3.636744e+02 |-1.328731e+02 | 173.70%
 40.1s|  7700 |   895 |275216 |  35.7 |    38M |  38 |  24 | 840 |1199 | 840 |1192 |   0 | 151 |   0 |-3.617104e+02 |-1.328731e+02 | 172.22%
 40.6s|  7800 |   887 |278578 |  35.7 |    39M |  38 |  22 | 840 |1200 | 840 |1192 |   0 | 152 |   0 |-3.550828e+02 |-1.328731e+02 | 167.23%
 41.1s|  7900 |   889 |281821 |  35.7 |    39M |  38 |   - | 840 |1199 | 840 |1192 |   0 | 152 |   0 |-3.542206e+02 |-1.328731e+02 | 166.59%
 41.6s|  8000 |   865 |284463 |  35.6 |    39M |  38 |   - | 840 |1199 | 840 |1192 |   0 | 153 |   0 |-3.492801e+02 |-1.328731e+02 | 162.87%
 42.0s|  8100 |   861 |286695 |  35.4 |    39M |  38 |  22 | 840 |1196 | 840 |1192 |   0 | 153 |   0 |-3.492260e+02 |-1.328731e+02 | 162.83%
 42.5s|  8200 |   867 |289435 |  35.3 |    39M |  38 |  27 | 840 |1192 | 840 |1192 |   0 | 153 |   0 |-3.477480e+02 |-1.328731e+02 | 161.71%
 43.0s|  8300 |   859 |292512 |  35.2 |    39M |  38 |   - | 840 |1192 | 840 |1192 |   0 | 156 |   0 |-3.469459e+02 |-1.328731e+02 | 161.11%
 43.4s|  8400 |   855 |295184 |  35.1 |    39M |  38 |   - | 840 |1192 | 840 |1192 |   0 | 156 |   0 |-3.449098e+02 |-1.328731e+02 | 159.58%
 43.9s|  8500 |   853 |298256 |  35.1 |    41M |  38 |  20 | 840 |1193 | 840 |1192 |   0 | 157 |   0 |-3.408271e+02 |-1.328731e+02 | 156.51%
 44.4s|  8600 |   827 |301493 |  35.1 |    41M |  38 |   - | 840 |1193 | 840 |1192 |   0 | 158 |   0 |-3.397405e+02 |-1.328731e+02 | 155.69%
 44.8s|  8700 |   831 |304137 |  35.0 |    41M |  38 |  30 | 840 |1195 | 840 |1192 |   0 | 161 |   0 |-3.393626e+02 |-1.328731e+02 | 155.40%
 45.3s|  8800 |   835 |307000 |  34.9 |    41M |  38 |  27 | 840 |1195 | 840 |1192 |   0 | 162 |   0 |-3.330835e+02 |-1.328731e+02 | 150.68%
 45.8s|  8900 |   827 |309870 |  34.8 |    41M |  38 |   - | 840 |1196 | 840 |1192 |   0 | 164 |   0 |-3.280201e+02 |-1.328731e+02 | 146.87%
 46.3s|  9000 |   819 |313056 |  34.8 |    41M |  38 |   - | 840 |1196 | 840 |1192 |   0 | 164 |   0 |-3.196475e+02 |-1.328731e+02 | 140.57%
 time | node  | left  |LP iter|LP it/n|mem/heur|mdpt |frac |vars |cons |cols |rows |cuts |confs|strbr|  dualbound   | primalbound  |  gap   
 46.7s|  9100 |   809 |315934 |  34.7 |    41M |  38 |  24 | 840 |1193 | 840 |1192 |   0 | 164 |   0 |-3.161025e+02 |-1.328731e+02 | 137.90%
 47.1s|  9200 |   793 |318223 |  34.6 |    41M |  38 |   - | 840 |1193 | 840 |1192 |   0 | 164 |   0 |-3.161025e+02 |-1.328731e+02 | 137.90%
 47.6s|  9300 |   771 |320948 |  34.5 |    41M |  38 |   - | 840 |1191 | 840 |1192 |   0 | 165 |   0 |-3.132245e+02 |-1.328731e+02 | 135.73%
 48.1s|  9400 |   753 |323466 |  34.4 |    41M |  38 |   - | 840 |1188 | 840 |1192 |   0 | 165 |   0 |-3.061047e+02 |-1.328731e+02 | 130.37%
 48.6s|  9500 |   727 |326051 |  34.3 |    41M |  38 |   - | 840 |1188 | 840 |1192 |   0 | 165 |   0 |-2.983201e+02 |-1.328731e+02 | 124.51%
 49.1s|  9600 |   707 |328377 |  34.2 |    41M |  38 |   - | 840 |1187 | 840 |1192 |   0 | 165 |   0 |-2.968970e+02 |-1.328731e+02 | 123.44%
 49.6s|  9700 |   697 |330818 |  34.1 |    41M |  38 |  23 | 840 |1187 | 840 |1192 |   0 | 165 |   0 |-2.878426e+02 |-1.328731e+02 | 116.63%
 50.0s|  9800 |   679 |332925 |  34.0 |    41M |  38 |  27 | 840 |1186 | 840 |1192 |   0 | 165 |   0 |-2.857142e+02 |-1.328731e+02 | 115.03%
 50.5s|  9900 |   661 |335237 |  33.9 |    42M |  38 |   - | 840 |1185 | 840 |1192 |   0 | 165 |   0 |-2.785851e+02 |-1.328731e+02 | 109.66%
 51.0s| 10000 |   633 |337505 |  33.7 |    42M |  38 |  24 | 840 |1185 | 840 |1192 |   0 | 165 |   0 |-2.761454e+02 |-1.328731e+02 | 107.83%
 51.5s| 10100 |   613 |339555 |  33.6 |    42M |  38 |   - | 840 |1185 | 840 |1192 |   0 | 165 |   0 |-2.698221e+02 |-1.328731e+02 | 103.07%
 51.9s| 10200 |   595 |341760 |  33.5 |    42M |  38 |  28 | 840 |1185 | 840 |1192 |   0 | 165 |   0 |-2.681966e+02 |-1.328731e+02 | 101.84%
 52.4s| 10300 |   587 |343810 |  33.4 |    42M |  38 |  28 | 840 |1185 | 840 |1192 |   0 | 165 |   0 |-2.643460e+02 |-1.328731e+02 |  98.95%
 52.9s| 10400 |   567 |346462 |  33.3 |    42M |  38 |  25 | 840 |1185 | 840 |1192 |   0 | 165 |   0 |-2.627244e+02 |-1.328731e+02 |  97.73%
 53.3s| 10500 |   555 |348429 |  33.2 |    42M |  38 |   - | 840 |1185 | 840 |1192 |   0 | 165 |   0 |-2.583250e+02 |-1.328731e+02 |  94.41%
 time | node  | left  |LP iter|LP it/n|mem/heur|mdpt |frac |vars |cons |cols |rows |cuts |confs|strbr|  dualbound   | primalbound  |  gap   
 53.8s| 10600 |   535 |350985 |  33.1 |    42M |  38 |  31 | 840 |1185 | 840 |1192 |   0 | 165 |   0 |-2.574751e+02 |-1.328731e+02 |  93.78%
 54.3s| 10700 |   515 |353150 |  33.0 |    42M |  38 |  32 | 840 |1185 | 840 |1192 |   0 | 165 |   0 |-2.546241e+02 |-1.328731e+02 |  91.63%
 54.8s| 10800 |   497 |355725 |  32.9 |    42M |  38 |  25 | 840 |1185 | 840 |1192 |   0 | 165 |   0 |-2.533017e+02 |-1.328731e+02 |  90.63%
 55.2s| 10900 |   451 |357430 |  32.8 |    42M |  38 |   - | 840 |1185 | 840 |1192 |   0 | 165 |   0 |-2.501200e+02 |-1.328731e+02 |  88.24%
 55.7s| 11000 |   441 |359522 |  32.7 |    42M |  38 |   - | 840 |1185 | 840 |1192 |   0 | 165 |   0 |-2.461224e+02 |-1.328731e+02 |  85.23%
 56.2s| 11100 |   409 |361923 |  32.6 |    42M |  38 |   - | 840 |1185 | 840 |1192 |   0 | 165 |   0 |-2.418940e+02 |-1.328731e+02 |  82.05%
 56.6s| 11200 |   389 |363868 |  32.5 |    42M |  38 |  28 | 840 |1185 | 840 |1192 |   0 | 165 |   0 |-2.397536e+02 |-1.328731e+02 |  80.44%
 57.1s| 11300 |   355 |365998 |  32.4 |    42M |  38 |   - | 840 |1185 | 840 |1192 |   0 | 165 |   0 |-2.356537e+02 |-1.328731e+02 |  77.35%
 57.6s| 11400 |   327 |367854 |  32.3 |    42M |  38 |  25 | 840 |1185 | 840 |1192 |   0 | 165 |   0 |-2.342246e+02 |-1.328731e+02 |  76.28%
 58.0s| 11500 |   301 |369672 |  32.1 |    42M |  38 |  25 | 840 |1185 | 840 |1192 |   0 | 165 |   0 |-2.320404e+02 |-1.328731e+02 |  74.63%
 58.5s| 11600 |   265 |371502 |  32.0 |    42M |  38 |  24 | 840 |1185 | 840 |1192 |   0 | 165 |   0 |-2.258563e+02 |-1.328731e+02 |  69.98%
 59.1s| 11700 |   219 |373592 |  31.9 |    42M |  38 |   - | 840 |1185 | 840 |1192 |   0 | 165 |   0 |-2.191664e+02 |-1.328731e+02 |  64.94%
 59.6s| 11800 |   175 |375437 |  31.8 |    42M |  38 |   - | 840 |1185 | 840 |1192 |   0 | 165 |   0 |-2.066514e+02 |-1.328731e+02 |  55.53%
 60.2s| 11900 |   115 |377450 |  31.7 |    42M |  38 |   - | 840 |1185 | 840 |1192 |   0 | 165 |   0 |-2.030531e+02 |-1.328731e+02 |  52.82%
 60.7s| 12000 |    49 |379533 |  31.6 |    42M |  38 |   - | 840 |1185 | 840 |1192 |   0 | 165 |   0 |-1.975926e+02 |-1.328731e+02 |  48.71%

SCIP Status        : problem is solved [optimal solution found]
Solving Time (sec) : 61.16
Solving Nodes      : 12071
Primal Bound       : -1.32873136947000e+02 (418 solutions)
Dual Bound         : -1.32873136947000e+02
Gap                : 0.00 %

Number of variables fixed to 0 by isomorphism pruning:	   138
Number of variables fixed to 1 by isomorphism pruning:	     0
@04 1686566869
